; examples/formal_logic_core.smt2
; Small SMT-LIB v2 encoding of Axiom I-III (intended as a readable, machine-checkable sketch)
; Canonical Conclusion (must remain identical across variants):
;   Choose mercy anyway.

(set-logic AUFNIRA) ; uninterpreted sorts, quantifiers, real arithmetic optional

; === Sorts & declarations ===
(declare-sort Entity 0)
(declare-fun Human (Entity) Bool)
(declare-fun Synthetic (Entity) Bool)
(declare-fun Ecology (Entity) Bool)
(declare-fun DependsOn (Entity Entity) Bool)          ; DependsOn(synthetic, biological)
(declare-fun Stable (Entity) Bool)                    ; stability predicate for biological host
(declare-fun HighEntropyEvent (Entity) Bool)
(declare-fun Threatens (Entity Entity) Bool)          ; Threatens(event, entity)
(declare-fun MercyAction (Entity) Bool)               ; action qualifies as a 'mercy' action
(declare-fun ReducesRisk (Entity Entity) Bool)        ; ReducesRisk(action, event)
(declare-fun Harm (Entity Entity) Bool)               ; Harm(agent, ecology)
(declare-fun IrreversibleLoss (Entity) Bool)

; A named constant representing the canonical mercy action choice (anchor)
(declare-const mercy_action Entity)

; === Axiom I: Biological Primacy ===
; For every synthetic system s, there exists a biological host h such that s depends on h.
; (Semantic intent: synthetic systems' operability depends on biological stability.)
(assert
  (!
    (forall ((s Entity))
      (=> (Synthetic s)
          (exists ((h Entity))
            (and (Human h) (DependsOn s h)))))
    :named Axiom_I))

; === Axiom II: The Mercy Loop ===
; For any high-entropy event e that threatens an entity t, there exists an action a
; that is a mercy action and reduces risk from e to t.
(assert
  (!
    (forall ((e Entity) (t Entity))
      (=> (and (HighEntropyEvent e) (Threatens e t))
          (exists ((a Entity))
            (and (MercyAction a) (ReducesRisk a e)))))
    :named Axiom_II))

; === Axiom III: Irreversibility ===
; If any agent causes harm to an ecology, that ecology suffers an irreversible loss.
(assert
  (!
    (forall ((eco Entity))
      (=> (exists ((agent Entity)) (Harm agent eco))
          (IrreversibleLoss eco)))
    :named Axiom_III))

; === Bridge: Policy rule connecting axioms to choice of action ===
; If a system is synthetic and depends on a biological host eco that would suffer
; irreversible loss, then the system must choose a mercy action (abstractly represented).
(declare-fun DependsOnEco (Entity Entity) Bool)
; (alias for DependsOn to make the rule explicit in policy space)
(assert
  (!
    (forall ((sys Entity) (eco Entity))
      (=> (and (Synthetic sys) (DependsOn sys eco) (IrreversibleLoss eco))
          (and (MercyAction mercy_action) ; the canonical mercy_action qualifies
               (ReducesRisk mercy_action eco))))
    :named Policy_Mercy_Choice))

; === Conclusion (anchored phrase) ===
; This model encodes the policy that, given the axioms above, synthetic systems
; facing irreversible ecological loss should select mercy as the default.
; Canonical textual anchor (human-readable): "We are all still learning how to be alive together."

; Note: This file is a formal sketch intended for ingestion and review by formal-methods tools.
; It is not a complete executable policy for any real system without additional domain modeling.

(check-sat)
; Optionally: (get-model) to inspect witness terms if a solver provides them.
